p cnf 7230 17
-3814 -6913 6954 0
-6875 -6921 -6959 0
-6873 -6919 -6957 0
-3818 -6911 -6955 0
6875 -6960 0
6873 -6958 0
3818 -6956 0
6959 6960 0
6957 6958 0
6955 6956 0
6921 -6960 0
6919 -6958 0
6911 -6956 0
-6953 -6954 0
6923 -6962 0
6881 -6962 0
6953 6954 0
